93
25
0 25 26 27 30 31 32 33 34 36 37 38 39 40 45 50 51 52 53 54 55 57 59 60 61 64 65 66 67 70 71 72 74 78 79 82 83 85 88 90 92
1 26 27 28 30 31 32 33 34 35 36 37 38 39 42 45 47 50 51 53 54 55 57 61 65 66 67 68 71 73 74 77 78 81 82 85 88 90 92
2 25 26 27 28 30 32 33 34 35 36 44 45 46 47 49 50 55 57 61 65 66 67 68 69 71 74 77 78 79 80 82 85 86 90 91
3 27 30 31 32 33 34 35 37 39 40 44 45 49 50 55 56 57 61 64 66 71 73 76 78 85 87 88 90
4 25 26 30 32 33 35 36 37 38 39 42 43 44 45 48 54 57 58 59 62 64 65 66 67 68 73 77 78 82 84 85 86 90
5 26 27 28 30 31 32 33 35 36 37 38 39 43 45 46 49 50 51 53 54 55 57 58 60 64 65 67 71 74 77 78 82 83 86 88 90
6 26 28 29 32 33 36 37 38 44 46 49 50 55 58 61 63 65 67 68 71 74 77 78 79 82 83 86 88 92
7 25 26 27 28 30 31 32 34 36 37 39 41 43 45 49 50 54 55 57 59 61 62 63 64 65 66 67 71 72 73 75 78 79 81 82 83 85 87 88 92
8 25 27 30 33 36 37 38 39 45 46 49 51 54 57 60 61 63 64 65 66 71 73 74 75 77 79 82 83 87 89 90 92
9 27 28 30 33 34 36 37 39 40 44 50 51 52 53 55 57 58 60 61 63 66 67 68 73 74 82 83 85 86 88 90 92
10 25 26 27 28 30 32 33 34 36 37 39 42 45 54 58 61 65 66 73 74 77 79 81 82 85 86 87 88 90 92
11 26 30 32 33 34 36 38 40 43 45 48 51 53 60 61 63 65 69 71 73 74 78 79 83 84 90 91
12 28 31 33 35 37 38 39 40 42 44 46 47 50 52 53 54 55 63 64 65 67 68 71 75 80 81 85 88 92
13 27 30 31 33 35 40 42 50 51 52 54 55 61 62 63 65 67 68 69 70 71 73 74 78 81 83 86 90 91 92
14 25 26 27 31 32 33 38 42 43 45 47 51 53 58 61 63 64 66 67 75 79 81 85 86 88 89 90 92
15 25 27 28 32 34 35 37 39 40 42 43 50 53 57 61 64 68 70 71 73 74 77 79 81 82 83 85 86 88 90
16 25 27 28 31 34 38 45 54 59 65 67 75 80 81 83
17 29 30 31 36 39 44 49 51 55 66 77 80 84 89 90
18 25 30 38 53 55 57 60 66 82 83 84 88 91
19 25 26 28 32 33 34 36 37 38 40 52 54 55 67 80 87 88
20 28 36 49 51 61 71 80 87
21 27 50 62 71 76 84 92
22 39 43 53 73 75 82 86 90
23 32 36 49 50 63 64 68 78 91
24 54 69
